\ENCODING=ISO-8859-1
\Problem name: ran12x21.mps

Maximize
 COST: 1 X0               + 1 X1               + 7 X2               + 7 X3               + 7 X4               + 10 X5               + 10 X6               + 10 X7               + 9 X8               + 9 X9               + 5 X10              + 9 X11              + 2 X12              + 3 X13              + 8 X14              + 8 X15              + 2 X16              + 10 X17              + 7 X18              + 4 X19              + 9 X20              + 4 X21              + 10 X22              + 1 X23              + 1 X24              + 3 X25              + 10 X26              + 2 X27              + 2 X28              + 7 X29              + 9 X30              + 10 X31              + 5 X32              + 6 X33              + 9 X34              + 2 X35              + 10 X36              + 5 X37              + 3 X38              + 4 X39              + 2 X40              + 3 X41              + 10 X42              + 4 X43              + 1 X44              + 3 X45              + 10 X46              + 1 X47              + 8 X48              + 8 X49              + 6 X50              + 2 X51              + 7 X52              + 2 X53              + 4 X54              + 2 X55              + 5 X56              + 9 X57              + 7 X58              + 6 X59              + 10 X60              + 4 X61              + 9 X62              + 1 X63              + 10 X64              + 10 X65              + 5 X66              + 7 X67              + 8 X68              + 10 X69              + 10 X70              + 6 X71              + 10 X72              + 9 X73              + 2 X74              + 5 X75              + 2 X76              + 5 X77              + 7 X78              + 4 X79              + 2 X80              + 9 X81              + 7 X82              + 5 X83              + 8 X84              + 4 X85              + 4 X86              + 4 X87              + 3 X88              + 1 X89              + 3 X90              + 2 X91              + 1 X92              + 8 X93              + 2 X94              + 9 X95              + 10 X96              + 6 X97              + 2 X98              + 3 X99              + 7 X100             + 5 X101             + 4 X102             + 7 X103             + 10 X104             + 4 X105             + 4 X106             + 7 X107             + 7 X108             + 10 X109             + 7 X110             + 1 X111             + 8 X112             + 7 X113             + 9 X114             + 7 X115             + 7 X116             + 5 X117             + 1 X118             + 2 X119             + 5 X120             + 8 X121             + 9 X122             + 8 X123             + 9 X124             + 9 X125             + 4 X126             + 7 X127             + 1 X128             + 4 X129             + 1 X130             + 5 X131             + 1 X132             + 2 X133             + 2 X134             + 5 X135             + 5 X136             + 7 X137             + 2 X138             + 6 X139             + 6 X140             + 6 X141             + 6 X142             + 6 X143             + 3 X144             + 3 X145             + 4 X146             + 1 X147             + 1 X148             + 4 X149             + 8 X150             + 10 X151             + 3 X152             + 9 X153             + 4 X154             + 8 X155             + 3 X156             + 9 X157             + 5 X158             + 5 X159             + 2 X160             + 5 X161             + 8 X162             + 5 X163             + 4 X164             + 6 X165             + 4 X166             + 1 X167             + 10 X168             + 1 X169             + 10 X170             + 7 X171             + 6 X172             + 9 X173             + 7 X174             + 10 X175             + 3 X176             + 10 X177             + 5 X178             + 6 X179             + 5 X180             + 6 X181             + 6 X182             + 10 X183             + 8 X184             + 8 X185             + 4 X186             + 3 X187             + 3 X188             + 10 X189             + 9 X190             + 7 X191             + 4 X192             + 7 X193             + 4 X194             + 4 X195             + 10 X196             + 8 X197             + 10 X198             + 1 X199             + 5 X200             + 2 X201             + 6 X202             + 3 X203             + 7 X204             + 5 X205             + 8 X206             + 3 X207             + 3 X208             + 8 X209             + 10 X210             + 10 X211             + 1 X212             + 4 X213             + 7 X214             + 8 X215             + 1 X216             + 10 X217             + 3 X218             + 10 X219             + 10 X220             + 10 X221             + 6 X222             + 6 X223             + 5 X224             + 1 X225             + 8 X226             + 8 X227             + 9 X228             + 9 X229             + 7 X230             + 5 X231             + 7 X232             + 4 X233             + 8 X234             + 3 X235             + 5 X236             + 1 X237             + 4 X238             + 5 X239             + 3 X240             + 9 X241             + 9 X242             + 2 X243             + 5 X244             + 9 X245             + 4 X246             + 2 X247             + 8 X248             + 3 X249             + 2 X250             + 9 X251             + 225 Y0               + 91 Y1               + 203 Y2               + 179 Y3               + 233 Y4               + 77 Y5               + 240 Y6               + 147 Y7               + 180 Y8               + 227 Y9               + 200 Y10              + 87 Y11              + 263 Y12              + 250 Y13              + 121 Y14              + 101 Y15              + 156 Y16              + 170 Y17              + 219 Y18              + 189 Y19              + 102 Y20              + 187 Y21              + 170 Y22              + 132 Y23              + 171 Y24              + 81 Y25              + 112 Y26              + 157 Y27              + 172 Y28              + 167 Y29              + 206 Y30              + 76 Y31              + 105 Y32              + 84 Y33              + 242 Y34              + 143 Y35              + 170 Y36              + 212 Y37              + 91 Y38              + 246 Y39              + 196 Y40              + 91 Y41              + 123 Y42              + 202 Y43              + 237 Y44              + 81 Y45              + 136 Y46              + 199 Y47              + 162 Y48              + 244 Y49              + 98 Y50              + 157 Y51              + 220 Y52              + 196 Y53              + 68 Y54              + 183 Y55              + 117 Y56              + 122 Y57              + 150 Y58              + 137 Y59              + 170 Y60              + 70 Y61              + 136 Y62              + 238 Y63              + 112 Y64              + 147 Y65              + 152 Y66              + 110 Y67              + 73 Y68              + 253 Y69              + 135 Y70              + 98 Y71              + 88 Y72              + 102 Y73              + 196 Y74              + 117 Y75              + 133 Y76              + 94 Y77              + 204 Y78              + 116 Y79              + 132 Y80              + 208 Y81              + 256 Y82              + 213 Y83              + 73 Y84              + 175 Y85              + 202 Y86              + 260 Y87              + 234 Y88              + 119 Y89              + 214 Y90              + 79 Y91              + 157 Y92              + 202 Y93              + 263 Y94              + 102 Y95              + 113 Y96              + 165 Y97              + 226 Y98              + 102 Y99              + 192 Y100             + 93 Y101             + 69 Y102             + 219 Y103             + 112 Y104             + 154 Y105             + 107 Y106             + 190 Y107             + 139 Y108             + 88 Y109             + 125 Y110             + 104 Y111             + 97 Y112             + 149 Y113             + 134 Y114             + 203 Y115             + 84 Y116             + 177 Y117             + 118 Y118             + 210 Y119             + 83 Y120             + 161 Y121             + 169 Y122             + 241 Y123             + 168 Y124             + 181 Y125             + 127 Y126             + 162 Y127             + 237 Y128             + 175 Y129             + 92 Y130             + 189 Y131             + 104 Y132             + 225 Y133             + 225 Y134             + 259 Y135             + 129 Y136             + 137 Y137             + 226 Y138             + 71 Y139             + 258 Y140             + 245 Y141             + 204 Y142             + 71 Y143             + 79 Y144             + 67 Y145             + 234 Y146             + 144 Y147             + 185 Y148             + 234 Y149             + 127 Y150             + 112 Y151             + 81 Y152             + 206 Y153             + 154 Y154             + 97 Y155             + 91 Y156             + 161 Y157             + 189 Y158             + 117 Y159             + 196 Y160             + 177 Y161             + 148 Y162             + 259 Y163             + 93 Y164             + 219 Y165             + 202 Y166             + 131 Y167             + 123 Y168             + 238 Y169             + 77 Y170             + 86 Y171             + 71 Y172             + 227 Y173             + 109 Y174             + 217 Y175             + 115 Y176             + 147 Y177             + 247 Y178             + 258 Y179             + 129 Y180             + 178 Y181             + 125 Y182             + 217 Y183             + 241 Y184             + 228 Y185             + 106 Y186             + 261 Y187             + 132 Y188             + 147 Y189             + 148 Y190             + 72 Y191             + 187 Y192             + 110 Y193             + 128 Y194             + 96 Y195             + 207 Y196             + 203 Y197             + 217 Y198             + 158 Y199             + 129 Y200             + 225 Y201             + 178 Y202             + 103 Y203             + 73 Y204             + 153 Y205             + 161 Y206             + 238 Y207             + 91 Y208             + 101 Y209             + 123 Y210             + 76 Y211             + 78 Y212             + 154 Y213             + 149 Y214             + 97 Y215             + 119 Y216             + 146 Y217             + 94 Y218             + 76 Y219             + 183 Y220             + 122 Y221             + 178 Y222             + 178 Y223             + 106 Y224             + 130 Y225             + 168 Y226             + 121 Y227             + 136 Y228             + 160 Y229             + 162 Y230             + 259 Y231             + 167 Y232             + 260 Y233             + 167 Y234             + 120 Y235             + 177 Y236             + 104 Y237             + 95 Y238             + 177 Y239             + 95 Y240             + 216 Y241             + 242 Y242             + 263 Y243             + 130 Y244             + 195 Y245             + 153 Y246             + 209 Y247             + 135 Y248             + 250 Y249             + 102 Y250             + 193 Y251    
Subject To
 A0:   X0 + X1 + X2 + X3 + X4 + X5 + X6 + X7 + X8 + X9 + X10 + X11 + X12 + X13
       + X14 + X15 + X16 + X17 + X18 + X19 + X20  = 24
 A1:   X21 + X22 + X23 + X24 + X25 + X26 + X27 + X28 + X29 + X30 + X31 + X32
       + X33 + X34 + X35 + X36 + X37 + X38 + X39 + X40 + X41  = 19
 A2:   X42 + X43 + X44 + X45 + X46 + X47 + X48 + X49 + X50 + X51 + X52 + X53
       + X54 + X55 + X56 + X57 + X58 + X59 + X60 + X61 + X62  = 31
 A3:   X63 + X64 + X65 + X66 + X67 + X68 + X69 + X70 + X71 + X72 + X73 + X74
       + X75 + X76 + X77 + X78 + X79 + X80 + X81 + X82 + X83  = 30
 A4:   X84 + X85 + X86 + X87 + X88 + X89 + X90 + X91 + X92 + X93 + X94 + X95
       + X96 + X97 + X98 + X99 + X100 + X101 + X102 + X103 + X104  = 26
 A5:   X105 + X106 + X107 + X108 + X109 + X110 + X111 + X112 + X113 + X114
       + X115 + X116 + X117 + X118 + X119 + X120 + X121 + X122 + X123 + X124
       + X125  = 14
 A6:   X126 + X127 + X128 + X129 + X130 + X131 + X132 + X133 + X134 + X135
       + X136 + X137 + X138 + X139 + X140 + X141 + X142 + X143 + X144 + X145
       + X146  = 23
 A7:   X147 + X148 + X149 + X150 + X151 + X152 + X153 + X154 + X155 + X156
       + X157 + X158 + X159 + X160 + X161 + X162 + X163 + X164 + X165 + X166
       + X167  = 20
 A8:   X168 + X169 + X170 + X171 + X172 + X173 + X174 + X175 + X176 + X177
       + X178 + X179 + X180 + X181 + X182 + X183 + X184 + X185 + X186 + X187
       + X188  = 63
 A9:   X189 + X190 + X191 + X192 + X193 + X194 + X195 + X196 + X197 + X198
       + X199 + X200 + X201 + X202 + X203 + X204 + X205 + X206 + X207 + X208
       + X209  = 13
 A10:  X210 + X211 + X212 + X213 + X214 + X215 + X216 + X217 + X218 + X219
       + X220 + X221 + X222 + X223 + X224 + X225 + X226 + X227 + X228 + X229
       + X230  = 32
 A11:  X231 + X232 + X233 + X234 + X235 + X236 + X237 + X238 + X239 + X240
       + X241 + X242 + X243 + X244 + X245 + X246 + X247 + X248 + X249 + X250
       + X251  = 25
 B0:   X0 + X21 + X42 + X63 + X84 + X105 + X126 + X147 + X168 + X189 + X210
       + X231  = 2
 B1:   X1 + X22 + X43 + X64 + X85 + X106 + X127 + X148 + X169 + X190 + X211
       + X232  = 8
 B2:   X2 + X23 + X44 + X65 + X86 + X107 + X128 + X149 + X170 + X191 + X212
       + X233  = 2
 B3:   X3 + X24 + X45 + X66 + X87 + X108 + X129 + X150 + X171 + X192 + X213
       + X234  = 3
 B4:   X4 + X25 + X46 + X67 + X88 + X109 + X130 + X151 + X172 + X193 + X214
       + X235  = 19
 B5:   X5 + X26 + X47 + X68 + X89 + X110 + X131 + X152 + X173 + X194 + X215
       + X236  = 5
 B6:   X6 + X27 + X48 + X69 + X90 + X111 + X132 + X153 + X174 + X195 + X216
       + X237  = 15
 B7:   X7 + X28 + X49 + X70 + X91 + X112 + X133 + X154 + X175 + X196 + X217
       + X238  = 38
 B8:   X8 + X29 + X50 + X71 + X92 + X113 + X134 + X155 + X176 + X197 + X218
       + X239  = 32
 B9:   X9 + X30 + X51 + X72 + X93 + X114 + X135 + X156 + X177 + X198 + X219
       + X240  = 9
 B10:  X10 + X31 + X52 + X73 + X94 + X115 + X136 + X157 + X178 + X199 + X220
       + X241  = 3
 B11:  X11 + X32 + X53 + X74 + X95 + X116 + X137 + X158 + X179 + X200 + X221
       + X242  = 21
 B12:  X12 + X33 + X54 + X75 + X96 + X117 + X138 + X159 + X180 + X201 + X222
       + X243  = 2
 B13:  X13 + X34 + X55 + X76 + X97 + X118 + X139 + X160 + X181 + X202 + X223
       + X244  = 29
 B14:  X14 + X35 + X56 + X77 + X98 + X119 + X140 + X161 + X182 + X203 + X224
       + X245  = 5
 B15:  X15 + X36 + X57 + X78 + X99 + X120 + X141 + X162 + X183 + X204 + X225
       + X246  = 50
 B16:  X16 + X37 + X58 + X79 + X100 + X121 + X142 + X163 + X184 + X205 + X226
       + X247  = 9
 B17:  X17 + X38 + X59 + X80 + X101 + X122 + X143 + X164 + X185 + X206 + X227
       + X248  = 7
 B18:  X18 + X39 + X60 + X81 + X102 + X123 + X144 + X165 + X186 + X207 + X228
       + X249  = 27
 B19:  X19 + X40 + X61 + X82 + X103 + X124 + X145 + X166 + X187 + X208 + X229
       + X250  = 7
 B20:  X20 + X41 + X62 + X83 + X104 + X125 + X146 + X167 + X188 + X209 + X230
       + X251  = 27
 G0:   X0 - 2 Y0 <= 0
 G1:   X1 - 8 Y1 <= 0
 G2:   X2 - 2 Y2 <= 0
 G3:   X3 - 3 Y3 <= 0
 G4:   X4 - 19 Y4 <= 0
 G5:   X5 - 5 Y5 <= 0
 G6:   X6 - 15 Y6 <= 0
 G7:   X7 - 24 Y7 <= 0
 G8:   X8 - 24 Y8 <= 0
 G9:   X9 - 9 Y9 <= 0
 G10:  X10 - 3 Y10 <= 0
 G11:  X11 - 21 Y11 <= 0
 G12:  X12 - 2 Y12 <= 0
 G13:  X13 - 24 Y13 <= 0
 G14:  X14 - 5 Y14 <= 0
 G15:  X15 - 24 Y15 <= 0
 G16:  X16 - 9 Y16 <= 0
 G17:  X17 - 7 Y17 <= 0
 G18:  X18 - 24 Y18 <= 0
 G19:  X19 - 7 Y19 <= 0
 G20:  X20 - 24 Y20 <= 0
 G21:  X21 - 2 Y21 <= 0
 G22:  X22 - 8 Y22 <= 0
 G23:  X23 - 2 Y23 <= 0
 G24:  X24 - 3 Y24 <= 0
 G25:  X25 - 19 Y25 <= 0
 G26:  X26 - 5 Y26 <= 0
 G27:  X27 - 15 Y27 <= 0
 G28:  X28 - 19 Y28 <= 0
 G29:  X29 - 19 Y29 <= 0
 G30:  X30 - 9 Y30 <= 0
 G31:  X31 - 3 Y31 <= 0
 G32:  X32 - 19 Y32 <= 0
 G33:  X33 - 2 Y33 <= 0
 G34:  X34 - 19 Y34 <= 0
 G35:  X35 - 5 Y35 <= 0
 G36:  X36 - 19 Y36 <= 0
 G37:  X37 - 9 Y37 <= 0
 G38:  X38 - 7 Y38 <= 0
 G39:  X39 - 19 Y39 <= 0
 G40:  X40 - 7 Y40 <= 0
 G41:  X41 - 19 Y41 <= 0
 G42:  X42 - 2 Y42 <= 0
 G43:  X43 - 8 Y43 <= 0
 G44:  X44 - 2 Y44 <= 0
 G45:  X45 - 3 Y45 <= 0
 G46:  X46 - 19 Y46 <= 0
 G47:  X47 - 5 Y47 <= 0
 G48:  X48 - 15 Y48 <= 0
 G49:  X49 - 31 Y49 <= 0
 G50:  X50 - 31 Y50 <= 0
 G51:  X51 - 9 Y51 <= 0
 G52:  X52 - 3 Y52 <= 0
 G53:  X53 - 21 Y53 <= 0
 G54:  X54 - 2 Y54 <= 0
 G55:  X55 - 29 Y55 <= 0
 G56:  X56 - 5 Y56 <= 0
 G57:  X57 - 31 Y57 <= 0
 G58:  X58 - 9 Y58 <= 0
 G59:  X59 - 7 Y59 <= 0
 G60:  X60 - 27 Y60 <= 0
 G61:  X61 - 7 Y61 <= 0
 G62:  X62 - 27 Y62 <= 0
 G63:  X63 - 2 Y63 <= 0
 G64:  X64 - 8 Y64 <= 0
 G65:  X65 - 2 Y65 <= 0
 G66:  X66 - 3 Y66 <= 0
 G67:  X67 - 19 Y67 <= 0
 G68:  X68 - 5 Y68 <= 0
 G69:  X69 - 15 Y69 <= 0
 G70:  X70 - 30 Y70 <= 0
 G71:  X71 - 30 Y71 <= 0
 G72:  X72 - 9 Y72 <= 0
 G73:  X73 - 3 Y73 <= 0
 G74:  X74 - 21 Y74 <= 0
 G75:  X75 - 2 Y75 <= 0
 G76:  X76 - 29 Y76 <= 0
 G77:  X77 - 5 Y77 <= 0
 G78:  X78 - 30 Y78 <= 0
 G79:  X79 - 9 Y79 <= 0
 G80:  X80 - 7 Y80 <= 0
 G81:  X81 - 27 Y81 <= 0
 G82:  X82 - 7 Y82 <= 0
 G83:  X83 - 27 Y83 <= 0
 G84:  X84 - 2 Y84 <= 0
 G85:  X85 - 8 Y85 <= 0
 G86:  X86 - 2 Y86 <= 0
 G87:  X87 - 3 Y87 <= 0
 G88:  X88 - 19 Y88 <= 0
 G89:  X89 - 5 Y89 <= 0
 G90:  X90 - 15 Y90 <= 0
 G91:  X91 - 26 Y91 <= 0
 G92:  X92 - 26 Y92 <= 0
 G93:  X93 - 9 Y93 <= 0
 G94:  X94 - 3 Y94 <= 0
 G95:  X95 - 21 Y95 <= 0
 G96:  X96 - 2 Y96 <= 0
 G97:  X97 - 26 Y97 <= 0
 G98:  X98 - 5 Y98 <= 0
 G99:  X99 - 26 Y99 <= 0
 G100: X100 - 9 Y100 <= 0
 G101: X101 - 7 Y101 <= 0
 G102: X102 - 26 Y102 <= 0
 G103: X103 - 7 Y103 <= 0
 G104: X104 - 26 Y104 <= 0
 G105: X105 - 2 Y105 <= 0
 G106: X106 - 8 Y106 <= 0
 G107: X107 - 2 Y107 <= 0
 G108: X108 - 3 Y108 <= 0
 G109: X109 - 14 Y109 <= 0
 G110: X110 - 5 Y110 <= 0
 G111: X111 - 14 Y111 <= 0
 G112: X112 - 14 Y112 <= 0
 G113: X113 - 14 Y113 <= 0
 G114: X114 - 9 Y114 <= 0
 G115: X115 - 3 Y115 <= 0
 G116: X116 - 14 Y116 <= 0
 G117: X117 - 2 Y117 <= 0
 G118: X118 - 14 Y118 <= 0
 G119: X119 - 5 Y119 <= 0
 G120: X120 - 14 Y120 <= 0
 G121: X121 - 9 Y121 <= 0
 G122: X122 - 7 Y122 <= 0
 G123: X123 - 14 Y123 <= 0
 G124: X124 - 7 Y124 <= 0
 G125: X125 - 14 Y125 <= 0
 G126: X126 - 2 Y126 <= 0
 G127: X127 - 8 Y127 <= 0
 G128: X128 - 2 Y128 <= 0
 G129: X129 - 3 Y129 <= 0
 G130: X130 - 19 Y130 <= 0
 G131: X131 - 5 Y131 <= 0
 G132: X132 - 15 Y132 <= 0
 G133: X133 - 23 Y133 <= 0
 G134: X134 - 23 Y134 <= 0
 G135: X135 - 9 Y135 <= 0
 G136: X136 - 3 Y136 <= 0
 G137: X137 - 21 Y137 <= 0
 G138: X138 - 2 Y138 <= 0
 G139: X139 - 23 Y139 <= 0
 G140: X140 - 5 Y140 <= 0
 G141: X141 - 23 Y141 <= 0
 G142: X142 - 9 Y142 <= 0
 G143: X143 - 7 Y143 <= 0
 G144: X144 - 23 Y144 <= 0
 G145: X145 - 7 Y145 <= 0
 G146: X146 - 23 Y146 <= 0
 G147: X147 - 2 Y147 <= 0
 G148: X148 - 8 Y148 <= 0
 G149: X149 - 2 Y149 <= 0
 G150: X150 - 3 Y150 <= 0
 G151: X151 - 19 Y151 <= 0
 G152: X152 - 5 Y152 <= 0
 G153: X153 - 15 Y153 <= 0
 G154: X154 - 20 Y154 <= 0
 G155: X155 - 20 Y155 <= 0
 G156: X156 - 9 Y156 <= 0
 G157: X157 - 3 Y157 <= 0
 G158: X158 - 20 Y158 <= 0
 G159: X159 - 2 Y159 <= 0
 G160: X160 - 20 Y160 <= 0
 G161: X161 - 5 Y161 <= 0
 G162: X162 - 20 Y162 <= 0
 G163: X163 - 9 Y163 <= 0
 G164: X164 - 7 Y164 <= 0
 G165: X165 - 20 Y165 <= 0
 G166: X166 - 7 Y166 <= 0
 G167: X167 - 20 Y167 <= 0
 G168: X168 - 2 Y168 <= 0
 G169: X169 - 8 Y169 <= 0
 G170: X170 - 2 Y170 <= 0
 G171: X171 - 3 Y171 <= 0
 G172: X172 - 19 Y172 <= 0
 G173: X173 - 5 Y173 <= 0
 G174: X174 - 15 Y174 <= 0
 G175: X175 - 38 Y175 <= 0
 G176: X176 - 32 Y176 <= 0
 G177: X177 - 9 Y177 <= 0
 G178: X178 - 3 Y178 <= 0
 G179: X179 - 21 Y179 <= 0
 G180: X180 - 2 Y180 <= 0
 G181: X181 - 29 Y181 <= 0
 G182: X182 - 5 Y182 <= 0
 G183: X183 - 50 Y183 <= 0
 G184: X184 - 9 Y184 <= 0
 G185: X185 - 7 Y185 <= 0
 G186: X186 - 27 Y186 <= 0
 G187: X187 - 7 Y187 <= 0
 G188: X188 - 27 Y188 <= 0
 G189: X189 - 2 Y189 <= 0
 G190: X190 - 8 Y190 <= 0
 G191: X191 - 2 Y191 <= 0
 G192: X192 - 3 Y192 <= 0
 G193: X193 - 13 Y193 <= 0
 G194: X194 - 5 Y194 <= 0
 G195: X195 - 13 Y195 <= 0
 G196: X196 - 13 Y196 <= 0
 G197: X197 - 13 Y197 <= 0
 G198: X198 - 9 Y198 <= 0
 G199: X199 - 3 Y199 <= 0
 G200: X200 - 13 Y200 <= 0
 G201: X201 - 2 Y201 <= 0
 G202: X202 - 13 Y202 <= 0
 G203: X203 - 5 Y203 <= 0
 G204: X204 - 13 Y204 <= 0
 G205: X205 - 9 Y205 <= 0
 G206: X206 - 7 Y206 <= 0
 G207: X207 - 13 Y207 <= 0
 G208: X208 - 7 Y208 <= 0
 G209: X209 - 13 Y209 <= 0
 G210: X210 - 2 Y210 <= 0
 G211: X211 - 8 Y211 <= 0
 G212: X212 - 2 Y212 <= 0
 G213: X213 - 3 Y213 <= 0
 G214: X214 - 19 Y214 <= 0
 G215: X215 - 5 Y215 <= 0
 G216: X216 - 15 Y216 <= 0
 G217: X217 - 32 Y217 <= 0
 G218: X218 - 32 Y218 <= 0
 G219: X219 - 9 Y219 <= 0
 G220: X220 - 3 Y220 <= 0
 G221: X221 - 21 Y221 <= 0
 G222: X222 - 2 Y222 <= 0
 G223: X223 - 29 Y223 <= 0
 G224: X224 - 5 Y224 <= 0
 G225: X225 - 32 Y225 <= 0
 G226: X226 - 9 Y226 <= 0
 G227: X227 - 7 Y227 <= 0
 G228: X228 - 27 Y228 <= 0
 G229: X229 - 7 Y229 <= 0
 G230: X230 - 27 Y230 <= 0
 G231: X231 - 2 Y231 <= 0
 G232: X232 - 8 Y232 <= 0
 G233: X233 - 2 Y233 <= 0
 G234: X234 - 3 Y234 <= 0
 G235: X235 - 19 Y235 <= 0
 G236: X236 - 5 Y236 <= 0
 G237: X237 - 15 Y237 <= 0
 G238: X238 - 25 Y238 <= 0
 G239: X239 - 25 Y239 <= 0
 G240: X240 - 9 Y240 <= 0
 G241: X241 - 3 Y241 <= 0
 G242: X242 - 21 Y242 <= 0
 G243: X243 - 2 Y243 <= 0
 G244: X244 - 25 Y244 <= 0
 G245: X245 - 5 Y245 <= 0
 G246: X246 - 25 Y246 <= 0
 G247: X247 - 9 Y247 <= 0
 G248: X248 - 7 Y248 <= 0
 G249: X249 - 25 Y249 <= 0
 G250: X250 - 7 Y250 <= 0
 G251: X251 - 25 Y251 <= 0
Bounds
 0 <= Y0 <= 1
 0 <= Y1 <= 1
 0 <= Y2 <= 1
 0 <= Y3 <= 1
 0 <= Y4 <= 1
 0 <= Y5 <= 1
 0 <= Y6 <= 1
 0 <= Y7 <= 1
 0 <= Y8 <= 1
 0 <= Y9 <= 1
 0 <= Y10 <= 1
 0 <= Y11 <= 1
 0 <= Y12 <= 1
 0 <= Y13 <= 1
 0 <= Y14 <= 1
 0 <= Y15 <= 1
 0 <= Y16 <= 1
 0 <= Y17 <= 1
 0 <= Y18 <= 1
 0 <= Y19 <= 1
 0 <= Y20 <= 1
 0 <= Y21 <= 1
 0 <= Y22 <= 1
 0 <= Y23 <= 1
 0 <= Y24 <= 1
 0 <= Y25 <= 1
 0 <= Y26 <= 1
 0 <= Y27 <= 1
 0 <= Y28 <= 1
 0 <= Y29 <= 1
 0 <= Y30 <= 1
 0 <= Y31 <= 1
 0 <= Y32 <= 1
 0 <= Y33 <= 1
 0 <= Y34 <= 1
 0 <= Y35 <= 1
 0 <= Y36 <= 1
 0 <= Y37 <= 1
 0 <= Y38 <= 1
 0 <= Y39 <= 1
 0 <= Y40 <= 1
 0 <= Y41 <= 1
 0 <= Y42 <= 1
 0 <= Y43 <= 1
 0 <= Y44 <= 1
 0 <= Y45 <= 1
 0 <= Y46 <= 1
 0 <= Y47 <= 1
 0 <= Y48 <= 1
 0 <= Y49 <= 1
 0 <= Y50 <= 1
 0 <= Y51 <= 1
 0 <= Y52 <= 1
 0 <= Y53 <= 1
 0 <= Y54 <= 1
 0 <= Y55 <= 1
 0 <= Y56 <= 1
 0 <= Y57 <= 1
 0 <= Y58 <= 1
 0 <= Y59 <= 1
 0 <= Y60 <= 1
 0 <= Y61 <= 1
 0 <= Y62 <= 1
 0 <= Y63 <= 1
 0 <= Y64 <= 1
 0 <= Y65 <= 1
 0 <= Y66 <= 1
 0 <= Y67 <= 1
 0 <= Y68 <= 1
 0 <= Y69 <= 1
 0 <= Y70 <= 1
 0 <= Y71 <= 1
 0 <= Y72 <= 1
 0 <= Y73 <= 1
 0 <= Y74 <= 1
 0 <= Y75 <= 1
 0 <= Y76 <= 1
 0 <= Y77 <= 1
 0 <= Y78 <= 1
 0 <= Y79 <= 1
 0 <= Y80 <= 1
 0 <= Y81 <= 1
 0 <= Y82 <= 1
 0 <= Y83 <= 1
 0 <= Y84 <= 1
 0 <= Y85 <= 1
 0 <= Y86 <= 1
 0 <= Y87 <= 1
 0 <= Y88 <= 1
 0 <= Y89 <= 1
 0 <= Y90 <= 1
 0 <= Y91 <= 1
 0 <= Y92 <= 1
 0 <= Y93 <= 1
 0 <= Y94 <= 1
 0 <= Y95 <= 1
 0 <= Y96 <= 1
 0 <= Y97 <= 1
 0 <= Y98 <= 1
 0 <= Y99 <= 1
 0 <= Y100 <= 1
 0 <= Y101 <= 1
 0 <= Y102 <= 1
 0 <= Y103 <= 1
 0 <= Y104 <= 1
 0 <= Y105 <= 1
 0 <= Y106 <= 1
 0 <= Y107 <= 1
 0 <= Y108 <= 1
 0 <= Y109 <= 1
 0 <= Y110 <= 1
 0 <= Y111 <= 1
 0 <= Y112 <= 1
 0 <= Y113 <= 1
 0 <= Y114 <= 1
 0 <= Y115 <= 1
 0 <= Y116 <= 1
 0 <= Y117 <= 1
 0 <= Y118 <= 1
 0 <= Y119 <= 1
 0 <= Y120 <= 1
 0 <= Y121 <= 1
 0 <= Y122 <= 1
 0 <= Y123 <= 1
 0 <= Y124 <= 1
 0 <= Y125 <= 1
 0 <= Y126 <= 1
 0 <= Y127 <= 1
 0 <= Y128 <= 1
 0 <= Y129 <= 1
 0 <= Y130 <= 1
 0 <= Y131 <= 1
 0 <= Y132 <= 1
 0 <= Y133 <= 1
 0 <= Y134 <= 1
 0 <= Y135 <= 1
 0 <= Y136 <= 1
 0 <= Y137 <= 1
 0 <= Y138 <= 1
 0 <= Y139 <= 1
 0 <= Y140 <= 1
 0 <= Y141 <= 1
 0 <= Y142 <= 1
 0 <= Y143 <= 1
 0 <= Y144 <= 1
 0 <= Y145 <= 1
 0 <= Y146 <= 1
 0 <= Y147 <= 1
 0 <= Y148 <= 1
 0 <= Y149 <= 1
 0 <= Y150 <= 1
 0 <= Y151 <= 1
 0 <= Y152 <= 1
 0 <= Y153 <= 1
 0 <= Y154 <= 1
 0 <= Y155 <= 1
 0 <= Y156 <= 1
 0 <= Y157 <= 1
 0 <= Y158 <= 1
 0 <= Y159 <= 1
 0 <= Y160 <= 1
 0 <= Y161 <= 1
 0 <= Y162 <= 1
 0 <= Y163 <= 1
 0 <= Y164 <= 1
 0 <= Y165 <= 1
 0 <= Y166 <= 1
 0 <= Y167 <= 1
 0 <= Y168 <= 1
 0 <= Y169 <= 1
 0 <= Y170 <= 1
 0 <= Y171 <= 1
 0 <= Y172 <= 1
 0 <= Y173 <= 1
 0 <= Y174 <= 1
 0 <= Y175 <= 1
 0 <= Y176 <= 1
 0 <= Y177 <= 1
 0 <= Y178 <= 1
 0 <= Y179 <= 1
 0 <= Y180 <= 1
 0 <= Y181 <= 1
 0 <= Y182 <= 1
 0 <= Y183 <= 1
 0 <= Y184 <= 1
 0 <= Y185 <= 1
 0 <= Y186 <= 1
 0 <= Y187 <= 1
 0 <= Y188 <= 1
 0 <= Y189 <= 1
 0 <= Y190 <= 1
 0 <= Y191 <= 1
 0 <= Y192 <= 1
 0 <= Y193 <= 1
 0 <= Y194 <= 1
 0 <= Y195 <= 1
 0 <= Y196 <= 1
 0 <= Y197 <= 1
 0 <= Y198 <= 1
 0 <= Y199 <= 1
 0 <= Y200 <= 1
 0 <= Y201 <= 1
 0 <= Y202 <= 1
 0 <= Y203 <= 1
 0 <= Y204 <= 1
 0 <= Y205 <= 1
 0 <= Y206 <= 1
 0 <= Y207 <= 1
 0 <= Y208 <= 1
 0 <= Y209 <= 1
 0 <= Y210 <= 1
 0 <= Y211 <= 1
 0 <= Y212 <= 1
 0 <= Y213 <= 1
 0 <= Y214 <= 1
 0 <= Y215 <= 1
 0 <= Y216 <= 1
 0 <= Y217 <= 1
 0 <= Y218 <= 1
 0 <= Y219 <= 1
 0 <= Y220 <= 1
 0 <= Y221 <= 1
 0 <= Y222 <= 1
 0 <= Y223 <= 1
 0 <= Y224 <= 1
 0 <= Y225 <= 1
 0 <= Y226 <= 1
 0 <= Y227 <= 1
 0 <= Y228 <= 1
 0 <= Y229 <= 1
 0 <= Y230 <= 1
 0 <= Y231 <= 1
 0 <= Y232 <= 1
 0 <= Y233 <= 1
 0 <= Y234 <= 1
 0 <= Y235 <= 1
 0 <= Y236 <= 1
 0 <= Y237 <= 1
 0 <= Y238 <= 1
 0 <= Y239 <= 1
 0 <= Y240 <= 1
 0 <= Y241 <= 1
 0 <= Y242 <= 1
 0 <= Y243 <= 1
 0 <= Y244 <= 1
 0 <= Y245 <= 1
 0 <= Y246 <= 1
 0 <= Y247 <= 1
 0 <= Y248 <= 1
 0 <= Y249 <= 1
 0 <= Y250 <= 1
 0 <= Y251 <= 1
Binaries
 Y0  Y1  Y2  Y3  Y4  Y5  Y6  Y7  Y8  Y9  Y10  Y11  Y12  Y13  Y14  Y15  Y16 
 Y17  Y18  Y19  Y20  Y21  Y22  Y23  Y24  Y25  Y26  Y27  Y28  Y29  Y30  Y31 
 Y32  Y33  Y34  Y35  Y36  Y37  Y38  Y39  Y40  Y41  Y42  Y43  Y44  Y45  Y46 
 Y47  Y48  Y49  Y50  Y51  Y52  Y53  Y54  Y55  Y56  Y57  Y58  Y59  Y60  Y61 
 Y62  Y63  Y64  Y65  Y66  Y67  Y68  Y69  Y70  Y71  Y72  Y73  Y74  Y75  Y76 
 Y77  Y78  Y79  Y80  Y81  Y82  Y83  Y84  Y85  Y86  Y87  Y88  Y89  Y90  Y91 
 Y92  Y93  Y94  Y95  Y96  Y97  Y98  Y99  Y100  Y101  Y102  Y103  Y104  Y105 
 Y106  Y107  Y108  Y109  Y110  Y111  Y112  Y113  Y114  Y115  Y116  Y117  Y118 
 Y119  Y120  Y121  Y122  Y123  Y124  Y125  Y126  Y127  Y128  Y129  Y130  Y131 
 Y132  Y133  Y134  Y135  Y136  Y137  Y138  Y139  Y140  Y141  Y142  Y143  Y144 
 Y145  Y146  Y147  Y148  Y149  Y150  Y151  Y152  Y153  Y154  Y155  Y156  Y157 
 Y158  Y159  Y160  Y161  Y162  Y163  Y164  Y165  Y166  Y167  Y168  Y169  Y170 
 Y171  Y172  Y173  Y174  Y175  Y176  Y177  Y178  Y179  Y180  Y181  Y182  Y183 
 Y184  Y185  Y186  Y187  Y188  Y189  Y190  Y191  Y192  Y193  Y194  Y195  Y196 
 Y197  Y198  Y199  Y200  Y201  Y202  Y203  Y204  Y205  Y206  Y207  Y208  Y209 
 Y210  Y211  Y212  Y213  Y214  Y215  Y216  Y217  Y218  Y219  Y220  Y221  Y222 
 Y223  Y224  Y225  Y226  Y227  Y228  Y229  Y230  Y231  Y232  Y233  Y234  Y235 
 Y236  Y237  Y238  Y239  Y240  Y241  Y242  Y243  Y244  Y245  Y246  Y247  Y248 
 Y249  Y250  Y251 
End
